rows = 9;
cols = 7;
max_steps = 20;
problem = array2d(1..rows, 1..cols, 
[
 %1 2 3 4 5 6 7
  5,W,W,5,W,W,4, % 1
  W,8,B,W,W,B,W, % 2
  W,W,2,W,W,8,W, % 3
  W,B,W,4,W,W,W, % 4
  4,W,2,W,2,W,5, % 5
  W,W,W,5,W,B,W, % 6
  W,8,W,W,8,W,W, % 7
  W,B,W,W,B,4,W, % 8
  5,W,W,4,W,W,2, % 9
]);

%sum_points = 44